c colouring generated by benchmark framework
p edge 500 12458
v 1 2
v 2 9
v 3 3
v 4 7
v 5 10
v 6 7
v 7 3
v 8 10
v 9 2
v 10 13
v 11 0
v 12 12
v 13 8
v 14 13
v 15 8
v 16 2
v 17 6
v 18 3
v 19 12
v 20 6
v 21 9
v 22 12
v 23 10
v 24 7
v 25 6
v 26 9
v 27 9
v 28 6
v 29 8
v 30 3
v 31 4
v 32 0
v 33 13
v 34 14
v 35 11
v 36 1
v 37 8
v 38 9
v 39 1
v 40 1
v 41 1
v 42 0
v 43 7
v 44 11
v 45 12
v 46 5
v 47 8
v 48 12
v 49 7
v 50 7
v 51 8
v 52 5
v 53 14
v 54 4
v 55 4
v 56 6
v 57 9
v 58 7
v 59 5
v 60 12
v 61 3
v 62 6
v 63 7
v 64 0
v 65 3
v 66 6
v 67 9
v 68 4
v 69 2
v 70 5
v 71 0
v 72 12
v 73 5
v 74 3
v 75 1
v 76 14
v 77 2
v 78 9
v 79 10
v 80 11
v 81 6
v 82 2
v 83 4
v 84 11
v 85 3
v 86 2
v 87 2
v 88 9
v 89 3
v 90 2
v 91 12
v 92 13
v 93 12
v 94 2
v 95 11
v 96 6
v 97 9
v 98 11
v 99 6
v 100 13
v 101 12
v 102 14
v 103 13
v 104 0
v 105 3
v 106 11
v 107 7
v 108 9
v 109 8
v 110 4
v 111 0
v 112 14
v 113 2
v 114 9
v 115 9
v 116 6
v 117 12
v 118 2
v 119 0
v 120 12
v 121 8
v 122 0
v 123 10
v 124 2
v 125 5
v 126 11
v 127 2
v 128 5
v 129 14
v 130 13
v 131 4
v 132 8
v 133 8
v 134 1
v 135 3
v 136 1
v 137 9
v 138 9
v 139 9
v 140 1
v 141 1
v 142 5
v 143 14
v 144 12
v 145 9
v 146 3
v 147 4
v 148 13
v 149 7
v 150 6
v 151 2
v 152 7
v 153 11
v 154 12
v 155 6
v 156 6
v 157 3
v 158 7
v 159 3
v 160 7
v 161 4
v 162 12
v 163 11
v 164 0
v 165 2
v 166 0
v 167 0
v 168 4
v 169 8
v 170 2
v 171 7
v 172 1
v 173 8
v 174 7
v 175 7
v 176 2
v 177 1
v 178 14
v 179 10
v 180 4
v 181 7
v 182 5
v 183 3
v 184 0
v 185 6
v 186 6
v 187 3
v 188 2
v 189 7
v 190 2
v 191 3
v 192 1
v 193 4
v 194 6
v 195 9
v 196 0
v 197 10
v 198 4
v 199 5
v 200 5
v 201 9
v 202 12
v 203 2
v 204 7
v 205 0
v 206 5
v 207 4
v 208 12
v 209 5
v 210 0
v 211 0
v 212 10
v 213 7
v 214 0
v 215 3
v 216 11
v 217 3
v 218 10
v 219 1
v 220 2
v 221 3
v 222 13
v 223 0
v 224 3
v 225 13
v 226 10
v 227 10
v 228 5
v 229 0
v 230 2
v 231 3
v 232 5
v 233 4
v 234 3
v 235 10
v 236 11
v 237 11
v 238 12
v 239 5
v 240 5
v 241 11
v 242 6
v 243 10
v 244 3
v 245 1
v 246 10
v 247 5
v 248 3
v 249 0
v 250 0
v 251 5
v 252 9
v 253 1
v 254 4
v 255 0
v 256 8
v 257 13
v 258 2
v 259 10
v 260 4
v 261 6
v 262 0
v 263 14
v 264 6
v 265 7
v 266 8
v 267 3
v 268 4
v 269 6
v 270 10
v 271 8
v 272 0
v 273 5
v 274 5
v 275 11
v 276 8
v 277 1
v 278 9
v 279 5
v 280 14
v 281 7
v 282 9
v 283 4
v 284 3
v 285 10
v 286 8
v 287 11
v 288 5
v 289 4
v 290 8
v 291 14
v 292 10
v 293 7
v 294 7
v 295 6
v 296 14
v 297 5
v 298 0
v 299 11
v 300 9
v 301 6
v 302 9
v 303 10
v 304 8
v 305 2
v 306 12
v 307 1
v 308 7
v 309 4
v 310 12
v 311 8
v 312 0
v 313 9
v 314 4
v 315 14
v 316 3
v 317 11
v 318 10
v 319 9
v 320 1
v 321 9
v 322 6
v 323 3
v 324 1
v 325 8
v 326 7
v 327 6
v 328 5
v 329 1
v 330 10
v 331 6
v 332 3
v 333 11
v 334 7
v 335 10
v 336 0
v 337 6
v 338 6
v 339 7
v 340 11
v 341 7
v 342 12
v 343 6
v 344 2
v 345 1
v 346 8
v 347 5
v 348 8
v 349 10
v 350 9
v 351 13
v 352 11
v 353 5
v 354 2
v 355 4
v 356 10
v 357 4
v 358 13
v 359 6
v 360 7
v 361 2
v 362 11
v 363 12
v 364 2
v 365 14
v 366 3
v 367 5
v 368 8
v 369 3
v 370 5
v 371 14
v 372 8
v 373 13
v 374 5
v 375 8
v 376 2
v 377 8
v 378 8
v 379 12
v 380 1
v 381 1
v 382 9
v 383 10
v 384 0
v 385 6
v 386 0
v 387 14
v 388 14
v 389 4
v 390 8
v 391 5
v 392 11
v 393 7
v 394 1
v 395 9
v 396 5
v 397 8
v 398 12
v 399 10
v 400 2
v 401 13
v 402 11
v 403 9
v 404 4
v 405 0
v 406 10
v 407 10
v 408 3
v 409 1
v 410 5
v 411 3
v 412 2
v 413 1
v 414 12
v 415 5
v 416 11
v 417 8
v 418 4
v 419 14
v 420 13
v 421 6
v 422 11
v 423 1
v 424 0
v 425 9
v 426 6
v 427 13
v 428 5
v 429 15
v 430 10
v 431 12
v 432 0
v 433 6
v 434 7
v 435 1
v 436 1
v 437 4
v 438 2
v 439 13
v 440 12
v 441 11
v 442 11
v 443 8
v 444 9
v 445 7
v 446 2
v 447 4
v 448 1
v 449 4
v 450 11
v 451 9
v 452 8
v 453 4
v 454 3
v 455 1
v 456 10
v 457 1
v 458 3
v 459 8
v 460 1
v 461 2
v 462 13
v 463 13
v 464 6
v 465 11
v 466 2
v 467 1
v 468 8
v 469 3
v 470 4
v 471 4
v 472 3
v 473 13
v 474 0
v 475 10
v 476 5
v 477 7
v 478 7
v 479 14
v 480 1
v 481 11
v 482 1
v 483 12
v 484 4
v 485 4
v 486 13
v 487 4
v 488 6
v 489 12
v 490 10
v 491 0
v 492 0
v 493 9
v 494 0
v 495 9
v 496 11
v 497 11
v 498 0
v 499 1
v 500 10
